SCIP Status        : solving was interrupted [time limit reached]
Total Time         :    3600.03
  solving          :    3600.03
  presolving       :       0.04 (included in solving)
  reading          :       0.00
  copying          :       0.85 (166 #copies) (minimal 0.00, maximal 0.10, average 0.01)
Original Problem   :
  Problem name     : waterz
  Variables        : 195 (126 binary, 0 integer, 0 implicit integer, 69 continuous)
  Constraints      : 137 initial, 137 maximal
  Objective        : minimize, 3 non-zeros (abs.min = 1, abs.max = 10)
Presolved Problem  :
  Problem name     : t_waterz
  Variables        : 266 (126 binary, 0 integer, 0 implicit integer, 140 continuous)
  Constraints      : 135 initial, 1511 maximal
  Objective        : minimize, 101 non-zeros (abs.min = 1.7, abs.max = 422.148)
  Nonzeros         : 539 constraint, 820 clique table
Presolvers         :   ExecTime  SetupTime  Calls  FixedVars   AggrVars   ChgTypes  ChgBounds   AddHoles    DelCons    AddCons   ChgSides   ChgCoefs
  boundshift       :       0.00       0.00      0          0          0          0          0          0          0          0          0          0
  convertinttobin  :       0.00       0.00      0          0          0          0          0          0          0          0          0          0
  domcol           :       0.00       0.00      2          0          0          0          0          0          0          0          0          0
  dualagg          :       0.00       0.00      0          0          0          0          0          0          0          0          0          0
  dualcomp         :       0.00       0.00      2          0          0          0          0          0          0          0          0          0
  dualinfer        :       0.00       0.00      0          0          0          0          0          0          0          0          0          0
  dualsparsify     :       0.00       0.00      1          0          0          0          0          0          0          0          0          0
  gateextraction   :       0.00       0.00      0          0          0          0          0          0          0          0          0          0
  implics          :       0.00       0.00      4          0          0          0          0          0          0          0          0          0
  inttobinary      :       0.00       0.00      0          0          0          0          0          0          0          0          0          0
  qpkktref         :       0.00       0.00      0          0          0          0          0          0          0          0          0          0
  redvub           :       0.00       0.00      0          0          0          0          0          0          0          0          0          0
  sparsify         :       0.00       0.00      1          0          0          0          0          0          0          0          0          0
  stuffing         :       0.00       0.00      0          0          0          0          0          0          0          0          0          0
  trivial          :       0.00       0.00      6          0          0          0          0          0          0          0          0          0
  tworowbnd        :       0.00       0.00      0          0          0          0          0          0          0          0          0          0
  dualfix          :       0.00       0.00      6          0          0          0          0          0          0          0          0          0
  genvbounds       :       0.00       0.00      0          0          0          0          0          0          0          0          0          0
  probing          :       0.01       0.00      2          0          0          0         16          0          0          0          0          0
  pseudoobj        :       0.00       0.00      0          0          0          0          0          0          0          0          0          0
  symmetry         :       0.02       0.00      1          0          0          0          0          0          0          0          0          0
  vbounds          :       0.00       0.00      2          0          0          0          0          0          0          0          0          0
  varbound         :       0.00       0.00      7          0          0          0          0          0          0          0          4          4
  setppc           :       0.00       0.00     10          0          0          0          0          0          0          0          0          0
  linear           :       0.00       0.00     10          0          2          0         88          0          2          0          0          0
  logicor          :       0.00       0.00      0          0          0          0          0          0          0          0          0          0
  bounddisjunction :       0.00       0.00      0          0          0          0          0          0          0          0          0          0
  nonlinear        :       0.00       0.00     12          0          0          0          1          0          0          0          0         -4
  benders          :       0.00       0.00      0          0          0          0          0          0          0          0          0          0
  components       :       0.00       0.00      1          0          0          0          0          0          0          0          0          0
  root node        :          -          -      -          0          -          -         61          -          -          -          -          -
Constraints        :     Number  MaxNumber  #Separate #Propagate    #EnfoLP    #EnfoRelax  #EnfoPS    #Check   #ResProp    Cutoffs    DomReds       Cuts    Applied      Conss   Children
  benderslp        :          0          0          0          0     832088          0         18     237893          0          0          0          0          0          0          0
  integral         :          0          0          0          0     832088          0          0     237893          0          0      12437          0          0        154    1577998
  varbound         :         84+        85        151    4472273          0          0         18     237888     161881      10817    1622409          0          0          0          0
  setppc           :         14+       395        151    4805179          1          0         18      89909       4214       4678    3310653          0          0          0          0
  linear           :         22+        31        151    4800548          2          0          0      63580     118816      73878    9392209        116          8          0          0
  logicor          :          0+        41        151     408518          0          0          0          0       2096        132      60828         10          0          0          0
  bounddisjunction :          0+      1035          0    1552639          0          0          0          0       8070        813     352158          0          0          0          0
  nonlinear        :         15         15    2682293    4725725      37027          0         18      37618          0      97586   28069943   13631988   12215764          0      50526
  benders          :          0          0          0          0          2          0         18         21          0          0          0          0          0          0          0
  countsols        :          0          0          0          0          2          0         18         21          0          0          0          0          0          0          0
  components       :          0          0          0          0          0          0          0          0          0          0          0          0          0          0          0
Constraint Timings :  TotalTime  SetupTime   Separate  Propagate     EnfoLP     EnfoPS     EnfoRelax   Check    ResProp    SB-Prop
  benderslp        :       0.28       0.00       0.00       0.00       0.25       0.00       0.00       0.03       0.00       0.00
  integral         :      22.86       0.00       0.00       0.00      22.82       0.00       0.00       0.05       0.00       0.00
  varbound         :      29.94       0.00       0.00      28.46       0.00       0.00       0.00       1.33       0.08       0.07
  setppc           :      30.10       0.00       0.00      29.75       0.00       0.00       0.00       0.16       0.01       0.19
  linear           :      65.57       0.00       0.01      65.05       0.00       0.00       0.00       0.11       0.15       0.26
  logicor          :       3.28       0.00       0.00       3.27       0.00       0.00       0.00       0.00       0.00       0.00
  bounddisjunction :      25.00       0.00       0.00      24.91       0.00       0.00       0.00       0.00       0.05       0.04
  nonlinear        :     540.14       0.00     163.06     373.19       2.00       0.00       0.00       0.59       0.00       1.31
  benders          :       0.00       0.00       0.00       0.00       0.00       0.00       0.00       0.00       0.00       0.00
  countsols        :       0.00       0.00       0.00       0.00       0.00       0.00       0.00       0.00       0.00       0.00
  components       :       0.32       0.00       0.00       0.31       0.00       0.00       0.00       0.00       0.00       0.00
Propagators        : #Propagate   #ResProp    Cutoffs    DomReds
  dualfix          :          4          0          0          0
  genvbounds       :    1663535      15916      39380     868878
  nlobbt           :          0          0          0          0
  obbt             :          4          0          0          2
  probing          :          0          0          0          0
  pseudoobj        :    5112562      25729       1688     724372
  redcost          :    4136762          0          0          0
  rootredcost      :          7          0          0         12
  symmetry         :          0          0          0          0
  vbounds          :    1986265          0          0          0
Propagator Timings :  TotalTime  SetupTime   Presolve  Propagate    ResProp    SB-Prop
  dualfix          :       0.00       0.00       0.00       0.00       0.00       0.00
  genvbounds       :      10.07       0.00       0.00      10.05       0.02       0.01
  nlobbt           :       0.00       0.00       0.00       0.00       0.00       0.00
  obbt             :       0.12       0.00       0.00       0.12       0.00       0.00
  probing          :       0.01       0.00       0.01       0.00       0.00       0.00
  pseudoobj        :       7.83       0.00       0.00       7.69       0.13       0.00
  redcost          :       5.20       0.00       0.00       5.20       0.00       0.00
  rootredcost      :       0.97       0.00       0.00       0.97       0.00       0.00
  symmetry         :       0.58       0.00       0.02       0.56       0.00       0.00
  vbounds          :       1.82       0.00       0.00       1.81       0.00       0.01
Conflict Analysis  :       Time      Calls    Success    DomReds  Conflicts   Literals    Reconvs ReconvLits   Dualrays   Nonzeros   LP Iters   (pool size: [10000,10000])
  propagation      :       0.75      59501      43000          -      52519        6.8      36460        4.1          -          -          -
  infeasible LP    :       1.33      33362      17703          -        216        4.7        102        3.8      17703       13.9          0
  bound exceed. LP :       8.55     143042         47          -        159       27.2         87        3.7         11        1.0        982
  strong branching :       0.00          0          0          -          0        0.0          0        0.0          -          -          0
  pseudo solution  :       0.00          0          0          -          0        0.0          0        0.0          -          -          -
  applied globally :       0.21          -          -         11      32312        5.7          -          -        220          -          -
  applied locally  :          -          -          -          0        841       18.3          -          -      17494          -          -
Separators         :   ExecTime  SetupTime      Calls  RootCalls    Cutoffs    DomReds  FoundCuts ViaPoolAdd  DirectAdd    Applied ViaPoolApp  DirectApp      Conss
  cut pool         :       4.19          -     321899        300          -          -     189710     492427          -          -          -          -          -    (maximal pool size:       1176)
  aggregation      :      65.84       0.00     101228        151          0          0     173093     461886       1948      83131      82703        428          0
  > cmir           :          -          -          -          -          -          -          -     447772       1434      76708      76442        266          -
  > flowcover      :          -          -          -          -          -          -          -      10671        244       4362       4277         85          -
  > knapsackcover  :          -          -          -          -          -          -          -       3443        270       2061       1984         77          -
  cgmip            :       0.00       0.00          0          0          0          0          0          0          0          0          0          0          0
  clique           :       0.00       0.00        151        151          0          0          0          0          0          0          0          0          0
  closecuts        :       0.00       0.00          0          0          0          0          0          0          0          0          0          0          0
  convexproj       :       0.00       0.00          0          0          0          0          0          0          0          0          0          0          0
  disjunctive      :       0.00       0.00          0          0          0          0          0          0          0          0          0          0          0
  eccuts           :       0.00       0.00          0          0          0          0          0          0          0          0          0          0          0
  gauge            :       0.00       0.00          0          0          0          0          0          0          0          0          0          0          0
  gomory           :      16.81       0.00      95997         10          0          0      17364      24305       1146       3166       2979        187          0
  > gomorymi       :          -          -          -          -          -          -          -      24217       1118       3141       2956        185          -
  > strongcg       :          -          -          -          -          -          -          -         88         28         25         23          2          -
  impliedbounds    :       1.31       0.00     101228        151          0          0        801       2016          0        436        436          0          0
  interminor       :       0.00       0.00          0          0          0          0          0          0          0          0          0          0          0
  intobj           :       0.00       0.00          0          0          0          0          0          0          0          0          0          0          0
  mcf              :       0.00       0.00         18         18          0          0          9         13          0          2          2          0          0
  minor            :       0.06       0.00          0          0          0          0          0          0          0          0          0          0          0
  mixing           :       1.49       0.00     106991        151          0          0        737       3096          0        266        266          0          0
  oddcycle         :       0.00       0.00          0          0          0          0          0          0          0          0          0          0          0
  rapidlearning    :       0.02       0.00          0          0          0          0          0          0          0          0          0          0          0
  rlt              :       0.00       0.00         10         10          0          0          0          0          0          0          0          0          0
  zerohalf         :       7.27       0.00      96007         20          0          0        869       1111         74        484        453         31          0
Cutselectors       :   ExecTime  SetupTime      Calls  RootCalls   Selected     Forced   Filtered  RootSelec   RootForc   RootFilt 
  hybrid           :       5.04       0.00    2504933        150   12663985     104594    1429566        443          0       2137
Pricers            :   ExecTime  SetupTime      Calls       Vars
  problem variables:       0.00          -          0          0
Branching Rules    :   ExecTime  SetupTime   BranchLP  BranchExt   BranchPS    Cutoffs    DomReds       Cuts      Conss   Children
  allfullstrong    :       0.00       0.00          0          0          0          0          0          0          0          0
  cloud            :       0.00       0.00          0          0          0          0          0          0          0          0
  distribution     :       0.00       0.00          0          0          0          0          0          0          0          0
  fullstrong       :       0.00       0.00          0          0          0          0          0          0          0          0
  inference        :       0.00       0.00          0          0          0          0          0          0          0          0
  leastinf         :       0.00       0.00          0          0          0          0          0          0          0          0
  lookahead        :       0.00       0.00          0          0          0          0          0          0          0          0
  mostinf          :       0.00       0.00          0          0          0          0          0          0          0          0
  multaggr         :       0.00       0.00          0          0          0          0          0          0          0          0
  nodereopt        :       0.00       0.00          0          0          0          0          0          0          0          0
  pscost           :       0.00       0.00          0         18          0          0          0          0          0         36
  random           :       0.00       0.00          0          0          0          0          0          0          0          0
  relpscost        :      22.30       0.00     795061          0          0          0      12437          0        178    1577998
  vanillafullstrong:       0.00       0.00          0          0          0          0          0          0          0          0
Primal Heuristics  :   ExecTime  SetupTime      Calls      Found       Best
  LP solutions     :       0.00          -          -          2          2
  relax solutions  :       0.00          -          -          0          0
  pseudo solutions :       0.00          -          -          0          0
  strong branching :       0.04          -          -          0          0
  actconsdiving    :       0.00       0.00          0          0          0
  adaptivediving   :       1.46       0.00        432          0          0
  alns             :      10.66       0.00         68          5          5
  bound            :       0.00       0.00          0          0          0
  clique           :       0.01       0.00          1          0          0
  coefdiving       :       0.00       0.00          0          0          0
  completesol      :       0.00       0.00          0          0          0
  conflictdiving   :      12.55       0.00       4542          0          0
  crossover        :       1.15       0.00         22         10          1
  dins             :       0.00       0.00          0          0          0
  distributiondivin:     202.82       0.00       4542          0          0
  dps              :       0.00       0.00          0          0          0
  dualval          :       0.00       0.00          0          0          0
  farkasdiving     :       0.07       0.00          1          0          0
  feaspump         :       0.36       0.00         80          0          0
  fixandinfer      :       0.00       0.00          0          0          0
  fracdiving       :      11.33       0.00       4542          0          0
  gins             :       0.55       0.00         14          2          1
  guideddiving     :       7.76       0.00       4542          0          0
  indicator        :       0.58       0.00          0          0          0
  indicatordiving  :       0.00       0.00          0          0          0
  intdiving        :       0.00       0.00          0          0          0
  intshifting      :       0.37       0.00        194          0          0
  linesearchdiving :      12.96       0.00       4542          0          0
  localbranching   :       0.00       0.00          0          0          0
  locks            :       0.00       0.00          1          0          0
  lpface           :       0.33       0.00          0          0          0
  mpec             :       9.65       0.00         11          0          0
  multistart       :       0.00       0.00          0          0          0
  mutation         :       0.00       0.00          0          0          0
  nlpdiving        :       0.82       0.00          8          1          1
  objpscostdiving  :      12.50       0.00       2271          0          0
  octane           :       0.00       0.00          0          0          0
  ofins            :       0.21       0.00          0          0          0
  oneopt           :       0.38       0.00          7          0          0
  padm             :       0.00       0.00          0          0          0
  proximity        :       0.00       0.00          0          0          0
  pscostdiving     :      14.22       0.00       4542          0          0
  randrounding     :       2.62       0.00     200304          0          0
  rens             :       0.39       0.00          1          0          0
  reoptsols        :       0.00       0.00          0          0          0
  repair           :       0.00       0.00          0          0          0
  rins             :       3.48       0.00         60          2          0
  rootsoldiving    :      14.53       0.00       2271          0          0
  rounding         :       1.07       0.00      25311          0          0
  shiftandpropagate:       0.00       0.00          1          0          0
  shifting         :       1.41       0.00       8305          0          0
  simplerounding   :       0.70       0.00          0          0          0
  subnlp           :       1.60       0.00        215          0          0
  trivial          :       0.00       0.00          2          0          0
  trivialnegation  :       0.00       0.00          0          0          0
  trustregion      :       0.00       0.00          0          0          0
  trysol           :       0.45       0.00          0          0          0
  twoopt           :       0.00       0.00          0          0          0
  undercover       :       0.00       0.00          1          0          0
  vbounds          :       0.00       0.00          0          0          0
  veclendiving     :      13.42       0.00       4542          0          0
  zeroobj          :       0.00       0.00          0          0          0
  zirounding       :       0.31       0.00       1000          0          0
  other solutions  :          -          -          -          0          -
Expressions        :   #IntEval  IntEvalTi   #RevProp  RevPropTi    DomReds    Cutoffs  #Estimate  EstimTime  Branching  #Simplify SimplifyTi Simplified
  pow              :   92598665       9.03    5883789       1.69    4139946          0   20908399       1.39     152401         84       0.00          0
  prod             :        390       0.00          0       0.00          0          0   23508829       2.13     240199         92       0.00         32
  sum              :        195       0.00          0       0.00          0          0         15       0.00          0        108       0.00         46
  val              :          0       0.00          0       0.00          0          0          0       0.00          0          0       0.00          0
  var              :   51787992       2.58          0       0.00          0          0          0       0.00          0        282       0.00          0
  varidx           :          0       0.00          0       0.00          0          0          0       0.00          0          0       0.00          0
Nlhdlrs            :    Detects  DetectAll DetectTime   #IntEval  IntEvalTi   #RevProp  RevPropTi    DomReds    Cutoffs   #Enforce   EnfoTime       Cuts  Branching
  soc              :          0          0       0.00          0       0.00          0       0.00          0          0          0       0.00          0          0
  convex           :          0          0       0.00          0       0.00          0       0.00          0          0          0       0.00          0          0
  concave          :          0          0       0.00          0       0.00          0       0.00          0          0          0       0.00          0          0
  quotient         :          0          0       0.00          0       0.00          0       0.00          0          0          0       0.00          0          0
  quadratic        :         15        195       0.00   47686554      37.22   47287167     154.95   21442515      59721          0       0.00          0          0
  default          :        140       1280       0.00   92599170      14.03    5884057      20.65    4139946       1709   44417185      46.45   13109447          0
  bilinear         :         30         30       0.00          0       0.00          0       0.00          0          0   20923141       3.78        991          0
  perspective      :         16         16       0.00          0       0.00          0       0.00         17          0   13999988      17.88    1042700      14497
LP                 :       Time      Calls Iterations  Iter/call   Iter/sec  Time-0-It Calls-0-It    ItLimit
  primal LP        :     272.85     699960        298      49.67       1.09     272.75     699954
  dual LP          :    1474.34    3553255   41276587      11.64   27996.70       1.24       6275
  lex dual LP      :       0.00          0          0       0.00          -
  barrier LP       :       0.00          0          0       0.00          -       0.00          0
  resolve instable :       0.04         34       1707      50.21   45489.67
  diving/probing LP:      51.35     105689    1220409      11.55   23768.25
  strong branching :       5.60      10692     175675      16.43   31350.81          -          -       3254
    (at root node) :          -         35       2162      61.77          -
  conflict analysis:       0.03         88        982      11.16   34421.12
NLP relaxation     :
  solve time       :       0.78 (15 calls)
  convexity        :  nonconvex (120 linear rows, 0 convex ineq., 0 nonconvex ineq., 15 nonlinear eq. or two-sided ineq.)
NLP Solvers        :  #Problems  ProblemTi    #Solves  SolveTime      #Iter  Time/Iter      #Okay #TimeLimit #IterLimit #LObjLimit #Interrupt  #NumError #EvalError  #OutOfMem #LicenseEr #OtherTerm   #GlobOpt    #LocOpt  #Feasible #LocInfeas #GlobInfea #Unbounded   #Unknown
  ipopt            :         18       7.01         48      10.56       4418       0.00         43          0          5          0          0          0          0          0          0          0          0          6          2         31          0          0          9
B&B Tree           :
  number of runs   :          1
  nodes            :    1259409 (814280 internal, 445129 leaves)
  feasible leaves  :          2
  infeas. leaves   :     231970
  objective leaves :     213156
  nodes (total)    :    1259409 (814280 internal, 445129 leaves)
  nodes left       :     368277
  max depth        :         64
  max depth (total):         64
  backtracks       :     159058 (12.6%)
  early backtracks :          0 (0.0%)
  nodes exc. ref.  :          0 (0.0%)
  delayed cutoffs  :         72
  repropagations   :       5521 (17920 domain reductions, 50 cutoffs)
  avg switch length:       4.90
  switching time   :     598.33
Root Node          :
  First LP value   : +2.25376626383718e+01
  First LP Iters   :         81 (54000.00 Iter/sec)
  First LP Time    :       0.00
  Final Dual Bound : +5.31810504369018e+01
  Final Root Iters :       1672
  Root LP Estimate : +5.28567913078519e+03
Solution           :
  Solutions found  :         22 (10 improvements)
  First Solution   : +2.10984820778108e+03   (in run 1, after 326 nodes, 6.96 seconds, depth 20, found by <alns>)
  Gap First Sol.   :    3867.29 %
  Gap Last Sol.    :     513.14 %
  Primal Bound     : +9.83130656507359e+02   (in run 1, after 409626 nodes, 1162.05 seconds, depth 47, found by <gins>)
  Dual Bound       : +2.49469384741040e+02
  Gap              :     294.09 %
Integrals          :      Total       Avg%
  primal-dual      :  300048.70      83.35
  primal-ref       :          -          - (not evaluated)
  dual-ref         :          -          - (not evaluated)
